src/LKH/IO/anjos-60-02.tour
NAME : anjos-60-02.-156.tour
COMMENT : Length = -156
COMMENT : Found by LKH [Keld Helsgaun] Sun Apr 13 17:05:01 2025
TYPE : TOUR
DIMENSION : 60
TOUR_SECTION
1
12
52
14
37
34
24
29
41
44
35
3
42
40
53
28
56
45
4
11
58
38
47
43
6
23
55
51
59
26
60
30
9
32
5
31
10
20
19
49
16
57
17
22
2
8
27
39
33
54
50
15
36
18
25
21
46
48
7
13
-1
EOF
